
Gurobi 9.1.2 (linux64) logging started Wed Nov 24 10:33:03 2021

Changed value of parameter LogFile to lemke_square_v-(7, 4).log-s20-l10.log
   Prev:   Default: 
Changed value of parameter Threads to 32
   Prev: 0  Min: 0  Max: 1024  Default: 0
Changed value of parameter TimeLimit to 3600.0
   Prev: inf  Min: 0.0  Max: inf  Default: inf
Changed value of parameter MIPGap to 0.4
   Prev: 0.0001  Min: 0.0  Max: inf  Default: 0.0001
Warning: variable name "X[(7, 4),(7, 3)]" has a space
Warning: constraint name "flow-constr-t0-v(3, 0)" has a space
Warning: to let Gurobi read it back, use rlp format
Gurobi Optimizer version 9.1.2 build v9.1.2rc0 (linux64)
Thread count: 16 physical cores, 32 logical processors, using up to 32 threads
Optimize a model with 6013 rows, 5440 columns and 20670 nonzeros
Model fingerprint: 0x0b976fc4
Variable types: 0 continuous, 5440 integer (4800 binary)
Coefficient statistics:
  Matrix range     [1e+00, 1e+03]
  Objective range  [1e-01, 1e-01]
  Bounds range     [1e+00, 5e+02]
  RHS range        [1e+00, 1e+03]
Presolve removed 547 rows and 580 columns
Presolve time: 0.04s
Presolved: 5466 rows, 4860 columns, 18150 nonzeros
Variable types: 0 continuous, 4860 integer (4220 binary)

Root relaxation: objective 6.400000e+01, 127 iterations, 0.00 seconds

    Nodes    |    Current Node    |     Objective Bounds      |     Work
 Expl Unexpl |  Obj  Depth IntInf | Incumbent    BestBd   Gap | It/Node Time

     0     0   64.00000    0   42          -   64.00000      -     -    0s
     0     0   64.00000    0   85          -   64.00000      -     -    0s
     0     0   64.00000    0   87          -   64.00000      -     -    0s
     0     0   64.00000    0   56          -   64.00000      -     -    0s
     0     0   64.00000    0   66          -   64.00000      -     -    0s
     0     0   64.00000    0   46          -   64.00000      -     -    0s
H    0     0                    3853.6000000   64.00000  98.3%     -    0s
     0     0   64.00000    0   46 3853.60000   64.00000  98.3%     -    0s
H    0     0                     250.6000000   64.00000  74.5%     -    0s
H    0     2                     200.9000000   64.00000  68.1%     -    0s
     0     2   64.00000    0   46  200.90000   64.00000  68.1%     -    0s
H   34    64                     200.5000000   64.00000  68.1%  46.3    1s
H   45    64                     194.2000000   64.00000  67.0%  43.9    1s
H   63    96                     158.3000000   64.00000  59.6%  41.9    2s
H   73    96                     151.3000000   64.00000  57.7%  40.4    2s
H   95   128                     150.0000000   64.00000  57.3%  38.1    3s
H   97   128                     138.9000000   64.00000  53.9%  37.3    3s
H  117   128                     134.4000000   64.00000  52.4%  32.3    3s
  7557  8835   88.60000  108   50  134.40000   64.00000  52.4%   9.3    5s
H 9575  8986                     111.2000000   64.00000  42.4%   8.9    5s
H 9608  8980                     109.0000000   64.00000  41.3%   8.9    5s
H10153  8938                     107.2000000   64.00000  40.3%   8.8    5s
H10955  8791                     106.4000000   64.00000  39.8%   8.6    6s

Explored 10956 nodes (96449 simplex iterations) in 6.35 seconds
Thread count was 32 (of 32 available processors)

Solution count 10: 106.4 107.2 109 ... 194.2

Optimal solution found (tolerance 4.00e-01)
Best objective 1.064000000000e+02, best bound 6.400000000000e+01, gap 39.8496%

Gurobi 9.1.2 (linux64) logging started Wed Nov 24 12:42:55 2021

Changed value of parameter LogFile to lemke_square_v-(7, 4).log-s20-l10.log
   Prev:   Default: 
Changed value of parameter Threads to 32
   Prev: 0  Min: 0  Max: 1024  Default: 0
Changed value of parameter TimeLimit to 3600.0
   Prev: inf  Min: 0.0  Max: inf  Default: inf
Changed value of parameter MIPGap to 0.3
   Prev: 0.0001  Min: 0.0  Max: inf  Default: 0.0001
Warning: variable name "X[(7, 4),(7, 3)]" has a space
Warning: constraint name "flow-constr-t0-v(3, 0)" has a space
Warning: to let Gurobi read it back, use rlp format
Gurobi Optimizer version 9.1.2 build v9.1.2rc0 (linux64)
Thread count: 16 physical cores, 32 logical processors, using up to 32 threads
Optimize a model with 6013 rows, 5440 columns and 20670 nonzeros
Model fingerprint: 0x0b976fc4
Variable types: 0 continuous, 5440 integer (4800 binary)
Coefficient statistics:
  Matrix range     [1e+00, 1e+03]
  Objective range  [1e-01, 1e-01]
  Bounds range     [1e+00, 5e+02]
  RHS range        [1e+00, 1e+03]
Presolve removed 547 rows and 580 columns
Presolve time: 0.04s
Presolved: 5466 rows, 4860 columns, 18150 nonzeros
Variable types: 0 continuous, 4860 integer (4220 binary)

Root relaxation: objective 6.400000e+01, 127 iterations, 0.00 seconds

    Nodes    |    Current Node    |     Objective Bounds      |     Work
 Expl Unexpl |  Obj  Depth IntInf | Incumbent    BestBd   Gap | It/Node Time

     0     0   64.00000    0   42          -   64.00000      -     -    0s
     0     0   64.00000    0   85          -   64.00000      -     -    0s
     0     0   64.00000    0   87          -   64.00000      -     -    0s
     0     0   64.00000    0   56          -   64.00000      -     -    0s
     0     0   64.00000    0   66          -   64.00000      -     -    0s
     0     0   64.00000    0   46          -   64.00000      -     -    0s
H    0     0                    3853.6000000   64.00000  98.3%     -    0s
     0     0   64.00000    0   46 3853.60000   64.00000  98.3%     -    0s
H    0     0                     250.6000000   64.00000  74.5%     -    0s
H    0     2                     200.9000000   64.00000  68.1%     -    1s
     0     2   64.00000    0   46  200.90000   64.00000  68.1%     -    1s
H   34    64                     200.5000000   64.00000  68.1%  46.3    1s
H   45    64                     194.2000000   64.00000  67.0%  43.9    1s
H   63    96                     158.3000000   64.00000  59.6%  41.9    2s
H   73    96                     151.3000000   64.00000  57.7%  40.4    2s
H   95   128                     150.0000000   64.00000  57.3%  38.1    3s
H   97   128                     138.9000000   64.00000  53.9%  37.3    3s
H  117   128                     134.4000000   64.00000  52.4%  32.3    3s
  7557  8835   88.60000  108   50  134.40000   64.00000  52.4%   9.3    5s
H 9575  8986                     111.2000000   64.00000  42.4%   8.9    6s
H 9608  8980                     109.0000000   64.00000  41.3%   8.9    6s
H10153  8938                     107.2000000   64.00000  40.3%   8.8    6s
H10955  8791                     106.4000000   64.00000  39.8%   8.6    6s
H10957  8320                     103.8000000   64.00000  38.3%   8.6    6s
H10958  7904                     101.8000000   64.00000  37.1%   8.6    7s
H10959  7509                      94.5000000   64.00000  32.3%   8.6    7s
H10960  7135                      94.3000000   64.00000  32.1%   8.6    7s
H10962  6779                      94.2000000   64.00000  32.1%   8.6    7s
 10976  6791   64.00000   15   36   94.20000   64.00000  32.1%   9.6   10s
H11024  6509                      94.0000000   64.00000  31.9%   9.6   11s
H11034  6183                      93.0000000   64.00000  31.2%   9.6   11s
H11104  5918                      91.8000000   64.00000  30.3%   9.6   13s
H11106  5625                      91.0000000   64.00000  29.7%   9.6   13s

Cutting planes:
  Gomory: 5
  Cover: 131
  Implied bound: 146
  Projected implied bound: 15
  Clique: 40
  MIR: 37
  Flow cover: 65
  GUB cover: 4
  RLT: 23
  Relax-and-lift: 80

Explored 11120 nodes (108964 simplex iterations) in 13.06 seconds
Thread count was 32 (of 32 available processors)

Solution count 10: 91 91.8 93 ... 106.4

Optimal solution found (tolerance 3.00e-01)
Best objective 9.100000000000e+01, best bound 6.400000000000e+01, gap 29.6703%
